benchmarks/VRPTW/TSPTW/solution/n100w100.001.txt.solution
1 47 88 12 66 7 36 35 56 18 68 69 51 17 94 86 96 28 76 5 95 30 74 87 80 26 57 61 92 62 77 82 32 4 91 85 39 6 10 72 20 49 43 78 54 65 83 60 42 98 21 90 73 50 45 8 55 37 71 46 58 44 16 29 33 34 11 38 81 24 75 100 48 19 79 70 15 22 53 2 25 93 89 67 9 41 14 40 64 27 13 23 63 99 31 3 52 84 97 59 101 
643
